\ Model MTZ_MODEL
\ LP format - for model browsing. Use MPS format to capture full model detail.
Minimize
  p[0,1] + p[0,2] + p[0,3] + p[0,4] + p[0,5] + p[1,0] + p[1,2] + p[1,3]
   + p[1,4] + p[1,5] + p[2,0] + p[2,1] + p[2,3] + p[2,4] + p[2,5] + p[3,0]
   + p[3,1] + p[3,2] + p[3,4] + p[3,5] + p[4,0] + p[4,1] + p[4,2] + p[4,3]
   + p[4,5] + p[5,0] + p[5,1] + p[5,2] + p[5,3] + p[5,4] + dc[0] + dc[1]
   + dc[2] + dc[3] + dc[4] + dc[5] + 0 difc[2,0] + 0 difc[2,1]
Subject To
 p2: p[0,1] + 4.058237799619749 z[0,1] >= 0
 p3: p[0,1] - 19.84532724778086 z[0,1] - dcc[0,1] >= -19.84532724778086
 R2: dcc[0,1] <= 19.84532724778086
 R3: x[0,1,0] - x[1,0,0] + dif[0,1,0] >= 0
 R4: - x[0,1,0] + x[1,0,0] + dif[0,1,0] >= 0
 R5: x[0,1,1] - x[1,0,1] + dif[0,1,1] >= 0
 R6: - x[0,1,1] + x[1,0,1] + dif[0,1,1] >= 0
 p2: p[0,2] - 23.84192972689663 z[0,2] >= 0
 p3: p[0,2] - 48.06526893775717 z[0,2] - dcc[0,2] >= -48.06526893775717
 R9: dcc[0,2] <= 48.06526893775717
 R10: x[0,1,0] - x[2,0,0] + dif[0,2,0] >= 0
 R11: - x[0,1,0] + x[2,0,0] + dif[0,2,0] >= 0
 R12: x[0,1,1] - x[2,0,1] + dif[0,2,1] >= 0
 R13: - x[0,1,1] + x[2,0,1] + dif[0,2,1] >= 0
 p2: p[0,3] - 24.77939838441062 z[0,3] >= 0
 p3: p[0,3] - 49.24287677089986 z[0,3] - dcc[0,3] >= -49.24287677089986
 R16: dcc[0,3] <= 49.24287677089986
 R17: x[0,1,0] - x[3,0,0] + dif[0,3,0] >= 0
 R18: - x[0,1,0] + x[3,0,0] + dif[0,3,0] >= 0
 R19: x[0,1,1] - x[3,0,1] + dif[0,3,1] >= 0
 R20: - x[0,1,1] + x[3,0,1] + dif[0,3,1] >= 0
 p2: p[0,4] - 49.14628837427232 z[0,4] >= 0
 p3: p[0,4] - 74.28171919382781 z[0,4] - dcc[0,4] >= -74.28171919382781
 R23: dcc[0,4] <= 74.28171919382781
 R24: x[0,1,0] - x[4,0,0] + dif[0,4,0] >= 0
 R25: - x[0,1,0] + x[4,0,0] + dif[0,4,0] >= 0
 R26: x[0,1,1] - x[4,0,1] + dif[0,4,1] >= 0
 R27: - x[0,1,1] + x[4,0,1] + dif[0,4,1] >= 0
 p2: p[0,5] - 41.74341640870639 z[0,5] >= 0
 p3: p[0,5] - 66.61220120529306 z[0,5] - dcc[0,5] >= -66.61220120529306
 R30: dcc[0,5] <= 66.61220120529306
 R31: x[0,1,0] - x[5,0,0] + dif[0,5,0] >= 0
 R32: - x[0,1,0] + x[5,0,0] + dif[0,5,0] >= 0
 R33: x[0,1,1] - x[5,0,1] + dif[0,5,1] >= 0
 R34: - x[0,1,1] + x[5,0,1] + dif[0,5,1] >= 0
 p2: p[1,0] + 4.058237799619749 z[1,0] >= 0
 p3: p[1,0] - 19.84532724778086 z[1,0] - dcc[1,0] >= -19.84532724778086
 R37: dcc[1,0] <= 19.84532724778086
 R38: - x[0,0,0] + x[1,1,0] + dif[1,0,0] >= 0
 R39: x[0,0,0] - x[1,1,0] + dif[1,0,0] >= 0
 R40: - x[0,0,1] + x[1,1,1] + dif[1,0,1] >= 0
 R41: x[0,0,1] - x[1,1,1] + dif[1,0,1] >= 0
 p2: p[1,2] - 28.7351818652795 z[1,2] >= 0
 p3: p[1,2] - 52.92531567205203 z[1,2] - dcc[1,2] >= -52.92531567205203
 R44: dcc[1,2] <= 52.92531567205203
 R45: x[1,1,0] - x[2,0,0] + dif[1,2,0] >= 0
 R46: - x[1,1,0] + x[2,0,0] + dif[1,2,0] >= 0
 R47: x[1,1,1] - x[2,0,1] + dif[1,2,1] >= 0
 R48: - x[1,1,1] + x[2,0,1] + dif[1,2,1] >= 0
 p2: p[1,3] - 28.99829134799926 z[1,3] >= 0
 p3: p[1,3] - 51.25110470292262 z[1,3] - dcc[1,3] >= -51.25110470292262
 R51: dcc[1,3] <= 51.25110470292262
 R52: x[1,1,0] - x[3,0,0] + dif[1,3,0] >= 0
 R53: - x[1,1,0] + x[3,0,0] + dif[1,3,0] >= 0
 R54: x[1,1,1] - x[3,0,1] + dif[1,3,1] >= 0
 R55: - x[1,1,1] + x[3,0,1] + dif[1,3,1] >= 0
 p2: p[1,4] - 55.14610566299938 z[1,4] >= 0
 p3: p[1,4] - 80.13052506222722 z[1,4] - dcc[1,4] >= -80.13052506222722
 R58: dcc[1,4] <= 80.13052506222722
 R59: x[1,1,0] - x[4,0,0] + dif[1,4,0] >= 0
 R60: - x[1,1,0] + x[4,0,0] + dif[1,4,0] >= 0
 R61: x[1,1,1] - x[4,0,1] + dif[1,4,1] >= 0
 R62: - x[1,1,1] + x[4,0,1] + dif[1,4,1] >= 0
 p2: p[1,5] - 49.47172937764675 z[1,5] >= 0
 p3: p[1,5] - 72.34321514174049 z[1,5] - dcc[1,5] >= -72.34321514174049
 R65: dcc[1,5] <= 72.34321514174049
 R66: x[1,1,0] - x[5,0,0] + dif[1,5,0] >= 0
 R67: - x[1,1,0] + x[5,0,0] + dif[1,5,0] >= 0
 R68: x[1,1,1] - x[5,0,1] + dif[1,5,1] >= 0
 R69: - x[1,1,1] + x[5,0,1] + dif[1,5,1] >= 0
 p2: p[2,0] - 23.84192972689663 z[2,0] >= 0
 p3: p[2,0] - 48.06526893775717 z[2,0] - dcc[2,0] >= -48.06526893775717
 R72: dcc[2,0] <= 48.06526893775717
 R73: - x[0,0,0] + x[2,1,0] + dif[2,0,0] >= 0
 R74: x[0,0,0] - x[2,1,0] + dif[2,0,0] >= 0
 R75: - x[0,0,1] + x[2,1,1] + dif[2,0,1] >= 0
 R76: x[0,0,1] - x[2,1,1] + dif[2,0,1] >= 0
 p2: p[2,1] - 28.7351818652795 z[2,1] >= 0
 p3: p[2,1] - 52.92531567205203 z[2,1] - dcc[2,1] >= -52.92531567205203
 R79: dcc[2,1] <= 52.92531567205203
 R80: - x[1,0,0] + x[2,1,0] + dif[2,1,0] >= 0
 R81: x[1,0,0] - x[2,1,0] + dif[2,1,0] >= 0
 R82: - x[1,0,1] + x[2,1,1] + dif[2,1,1] >= 0
 R83: x[1,0,1] - x[2,1,1] + dif[2,1,1] >= 0
 p2: p[2,3] - 31.50677564643749 z[2,3] >= 0
 p3: p[2,3] - 54.95251885751738 z[2,3] - dcc[2,3] >= -54.95251885751738
 R86: dcc[2,3] <= 54.95251885751738
 R87: x[2,1,0] - x[3,0,0] + dif[2,3,0] >= 0
 R88: - x[2,1,0] + x[3,0,0] + dif[2,3,0] >= 0
 R89: x[2,1,1] - x[3,0,1] + dif[2,3,1] >= 0
 R90: - x[2,1,1] + x[3,0,1] + dif[2,3,1] >= 0
 p2: p[2,4] - 17.98610242155799 z[2,4] >= 0
 p3: p[2,4] - 43.17142437793742 z[2,4] - dcc[2,4] >= -43.17142437793742
 R93: dcc[2,4] <= 43.17142437793742
 R94: x[2,1,0] - x[4,0,0] + dif[2,4,0] >= 0
 R95: - x[2,1,0] + x[4,0,0] + dif[2,4,0] >= 0
 R96: x[2,1,1] - x[4,0,1] + dif[2,4,1] >= 0
 R97: - x[2,1,1] + x[4,0,1] + dif[2,4,1] >= 0
 p2: p[2,5] - 39.57074380421925 z[2,5] >= 0
 p3: p[2,5] - 58.6838672886033 z[2,5] - dcc[2,5] >= -58.6838672886033
 R100: dcc[2,5] <= 58.6838672886033
 R101: x[2,1,0] - x[5,0,0] + dif[2,5,0] >= 0
 R102: - x[2,1,0] + x[5,0,0] + dif[2,5,0] >= 0
 R103: x[2,1,1] - x[5,0,1] + dif[2,5,1] >= 0
 R104: - x[2,1,1] + x[5,0,1] + dif[2,5,1] >= 0
 p2: p[3,0] - 24.77939838441062 z[3,0] >= 0
 p3: p[3,0] - 49.24287677089986 z[3,0] - dcc[3,0] >= -49.24287677089986
 R107: dcc[3,0] <= 49.24287677089986
 R108: - x[0,0,0] + x[3,1,0] + dif[3,0,0] >= 0
 R109: x[0,0,0] - x[3,1,0] + dif[3,0,0] >= 0
 R110: - x[0,0,1] + x[3,1,1] + dif[3,0,1] >= 0
 R111: x[0,0,1] - x[3,1,1] + dif[3,0,1] >= 0
 p2: p[3,1] - 28.99829134799926 z[3,1] >= 0
 p3: p[3,1] - 51.25110470292262 z[3,1] - dcc[3,1] >= -51.25110470292262
 R114: dcc[3,1] <= 51.25110470292262
 R115: - x[1,0,0] + x[3,1,0] + dif[3,1,0] >= 0
 R116: x[1,0,0] - x[3,1,0] + dif[3,1,0] >= 0
 R117: - x[1,0,1] + x[3,1,1] + dif[3,1,1] >= 0
 R118: x[1,0,1] - x[3,1,1] + dif[3,1,1] >= 0
 p2: p[3,2] - 31.50677564643749 z[3,2] >= 0
 p3: p[3,2] - 54.95251885751738 z[3,2] - dcc[3,2] >= -54.95251885751738
 R121: dcc[3,2] <= 54.95251885751738
 R122: - x[2,0,0] + x[3,1,0] + dif[3,2,0] >= 0
 R123: x[2,0,0] - x[3,1,0] + dif[3,2,0] >= 0
 R124: - x[2,0,1] + x[3,1,1] + dif[3,2,1] >= 0
 R125: x[2,0,1] - x[3,1,1] + dif[3,2,1] >= 0
 p2: p[3,4] - 61.74624126528549 z[3,4] >= 0
 p3: p[3,4] - 84.79927842814278 z[3,4] - dcc[3,4] >= -84.79927842814278
 R128: dcc[3,4] <= 84.79927842814278
 R129: x[3,1,0] - x[4,0,0] + dif[3,4,0] >= 0
 R130: - x[3,1,0] + x[4,0,0] + dif[3,4,0] >= 0
 R131: x[3,1,1] - x[4,0,1] + dif[3,4,1] >= 0
 R132: - x[3,1,1] + x[4,0,1] + dif[3,4,1] >= 0
 p2: p[3,5] - 72.93301883010963 z[3,5] >= 0
 p3: p[3,5] - 95.42527694769856 z[3,5] - dcc[3,5] >= -95.42527694769856
 R135: dcc[3,5] <= 95.42527694769856
 R136: x[3,1,0] - x[5,0,0] + dif[3,5,0] >= 0
 R137: - x[3,1,0] + x[5,0,0] + dif[3,5,0] >= 0
 R138: x[3,1,1] - x[5,0,1] + dif[3,5,1] >= 0
 R139: - x[3,1,1] + x[5,0,1] + dif[3,5,1] >= 0
 p2: p[4,0] - 49.14628837427232 z[4,0] >= 0
 p3: p[4,0] - 74.28171919382781 z[4,0] - dcc[4,0] >= -74.28171919382781
 R142: dcc[4,0] <= 74.28171919382781
 R143: - x[0,0,0] + x[4,1,0] + dif[4,0,0] >= 0
 R144: x[0,0,0] - x[4,1,0] + dif[4,0,0] >= 0
 R145: - x[0,0,1] + x[4,1,1] + dif[4,0,1] >= 0
 R146: x[0,0,1] - x[4,1,1] + dif[4,0,1] >= 0
 p2: p[4,1] - 55.14610566299938 z[4,1] >= 0
 p3: p[4,1] - 80.13052506222722 z[4,1] - dcc[4,1] >= -80.13052506222722
 R149: dcc[4,1] <= 80.13052506222722
 R150: - x[1,0,0] + x[4,1,0] + dif[4,1,0] >= 0
 R151: x[1,0,0] - x[4,1,0] + dif[4,1,0] >= 0
 R152: - x[1,0,1] + x[4,1,1] + dif[4,1,1] >= 0
 R153: x[1,0,1] - x[4,1,1] + dif[4,1,1] >= 0
 p2: p[4,2] - 17.98610242155799 z[4,2] >= 0
 p3: p[4,2] - 43.17142437793742 z[4,2] - dcc[4,2] >= -43.17142437793742
 R156: dcc[4,2] <= 43.17142437793742
 R157: - x[2,0,0] + x[4,1,0] + dif[4,2,0] >= 0
 R158: x[2,0,0] - x[4,1,0] + dif[4,2,0] >= 0
 R159: - x[2,0,1] + x[4,1,1] + dif[4,2,1] >= 0
 R160: x[2,0,1] - x[4,1,1] + dif[4,2,1] >= 0
 p2: p[4,3] - 61.74624126528549 z[4,3] >= 0
 p3: p[4,3] - 84.79927842814278 z[4,3] - dcc[4,3] >= -84.79927842814278
 R163: dcc[4,3] <= 84.79927842814278
 R164: - x[3,0,0] + x[4,1,0] + dif[4,3,0] >= 0
 R165: x[3,0,0] - x[4,1,0] + dif[4,3,0] >= 0
 R166: - x[3,0,1] + x[4,1,1] + dif[4,3,1] >= 0
 R167: x[3,0,1] - x[4,1,1] + dif[4,3,1] >= 0
 p2: p[4,5] - 28.56067404668197 z[4,5] >= 0
 p3: p[4,5] - 52.18596012149814 z[4,5] - dcc[4,5] >= -52.18596012149814
 R170: dcc[4,5] <= 52.18596012149814
 R171: x[4,1,0] - x[5,0,0] + dif[4,5,0] >= 0
 R172: - x[4,1,0] + x[5,0,0] + dif[4,5,0] >= 0
 R173: x[4,1,1] - x[5,0,1] + dif[4,5,1] >= 0
 R174: - x[4,1,1] + x[5,0,1] + dif[4,5,1] >= 0
 p2: p[5,0] - 41.74341640870639 z[5,0] >= 0
 p3: p[5,0] - 66.61220120529306 z[5,0] - dcc[5,0] >= -66.61220120529306
 R177: dcc[5,0] <= 66.61220120529306
 R178: - x[0,0,0] + x[5,1,0] + dif[5,0,0] >= 0
 R179: x[0,0,0] - x[5,1,0] + dif[5,0,0] >= 0
 R180: - x[0,0,1] + x[5,1,1] + dif[5,0,1] >= 0
 R181: x[0,0,1] - x[5,1,1] + dif[5,0,1] >= 0
 p2: p[5,1] - 49.47172937764675 z[5,1] >= 0
 p3: p[5,1] - 72.34321514174049 z[5,1] - dcc[5,1] >= -72.34321514174049
 R184: dcc[5,1] <= 72.34321514174049
 R185: - x[1,0,0] + x[5,1,0] + dif[5,1,0] >= 0
 R186: x[1,0,0] - x[5,1,0] + dif[5,1,0] >= 0
 R187: - x[1,0,1] + x[5,1,1] + dif[5,1,1] >= 0
 R188: x[1,0,1] - x[5,1,1] + dif[5,1,1] >= 0
 p2: p[5,2] - 39.57074380421925 z[5,2] >= 0
 p3: p[5,2] - 58.6838672886033 z[5,2] - dcc[5,2] >= -58.6838672886033
 R191: dcc[5,2] <= 58.6838672886033
 R192: - x[2,0,0] + x[5,1,0] + dif[5,2,0] >= 0
 R193: x[2,0,0] - x[5,1,0] + dif[5,2,0] >= 0
 R194: - x[2,0,1] + x[5,1,1] + dif[5,2,1] >= 0
 R195: x[2,0,1] - x[5,1,1] + dif[5,2,1] >= 0
 p2: p[5,3] - 72.93301883010963 z[5,3] >= 0
 p3: p[5,3] - 95.42527694769856 z[5,3] - dcc[5,3] >= -95.42527694769856
 R198: dcc[5,3] <= 95.42527694769856
 R199: - x[3,0,0] + x[5,1,0] + dif[5,3,0] >= 0
 R200: x[3,0,0] - x[5,1,0] + dif[5,3,0] >= 0
 R201: - x[3,0,1] + x[5,1,1] + dif[5,3,1] >= 0
 R202: x[3,0,1] - x[5,1,1] + dif[5,3,1] >= 0
 p2: p[5,4] - 28.56067404668197 z[5,4] >= 0
 p3: p[5,4] - 52.18596012149814 z[5,4] - dcc[5,4] >= -52.18596012149814
 R205: dcc[5,4] <= 52.18596012149814
 R206: - x[4,0,0] + x[5,1,0] + dif[5,4,0] >= 0
 R207: x[4,0,0] - x[5,1,0] + dif[5,4,0] >= 0
 R208: - x[4,0,1] + x[5,1,1] + dif[5,4,1] >= 0
 R209: x[4,0,1] - x[5,1,1] + dif[5,4,1] >= 0
 R210: z[0,1] + z[0,2] + z[0,3] + z[0,4] + z[0,5] = 1
 R211: z[1,0] + z[1,2] + z[1,3] + z[1,4] + z[1,5] = 1
 R212: z[2,0] + z[2,1] + z[2,3] + z[2,4] + z[2,5] = 1
 R213: z[3,0] + z[3,1] + z[3,2] + z[3,4] + z[3,5] = 1
 R214: z[4,0] + z[4,1] + z[4,2] + z[4,3] + z[4,5] = 1
 R215: z[5,0] + z[5,1] + z[5,2] + z[5,3] + z[5,4] = 1
 R216: z[1,0] + z[2,0] + z[3,0] + z[4,0] + z[5,0] = 1
 R217: z[0,1] + z[2,1] + z[3,1] + z[4,1] + z[5,1] = 1
 R218: z[0,2] + z[1,2] + z[3,2] + z[4,2] + z[5,2] = 1
 R219: z[0,3] + z[1,3] + z[2,3] + z[4,3] + z[5,3] = 1
 R220: z[0,4] + z[1,4] + z[2,4] + z[3,4] + z[5,4] = 1
 R221: z[0,5] + z[1,5] + z[2,5] + z[3,5] + z[4,5] = 1
 rest7: z[0,1] + z[1,0] <= 1
 rest7: z[0,2] + z[2,0] <= 1
 rest7: z[0,3] + z[3,0] <= 1
 rest7: z[0,4] + z[4,0] <= 1
 rest7: z[0,5] + z[5,0] <= 1
 rest7: z[0,1] + z[1,0] <= 1
 rest7: z[1,2] + z[2,1] <= 1
 rest7: z[1,3] + z[3,1] <= 1
 rest7: z[1,4] + z[4,1] <= 1
 rest7: z[1,5] + z[5,1] <= 1
 rest7: z[0,2] + z[2,0] <= 1
 rest7: z[1,2] + z[2,1] <= 1
 rest7: z[2,3] + z[3,2] <= 1
 rest7: z[2,4] + z[4,2] <= 1
 rest7: z[2,5] + z[5,2] <= 1
 rest7: z[0,3] + z[3,0] <= 1
 rest7: z[1,3] + z[3,1] <= 1
 rest7: z[2,3] + z[3,2] <= 1
 rest7: z[3,4] + z[4,3] <= 1
 rest7: z[3,5] + z[5,3] <= 1
 rest7: z[0,4] + z[4,0] <= 1
 rest7: z[1,4] + z[4,1] <= 1
 rest7: z[2,4] + z[4,2] <= 1
 rest7: z[3,4] + z[4,3] <= 1
 rest7: z[4,5] + z[5,4] <= 1
 rest7: z[0,5] + z[5,0] <= 1
 rest7: z[1,5] + z[5,1] <= 1
 rest7: z[2,5] + z[5,2] <= 1
 rest7: z[3,5] + z[5,3] <= 1
 rest7: z[4,5] + z[5,4] <= 1
 R252: 6 z[1,2] + sc[1] - sc[2] <= 5
 R253: 6 z[1,3] + sc[1] - sc[3] <= 5
 R254: 6 z[1,4] + sc[1] - sc[4] <= 5
 R255: 6 z[1,5] + sc[1] - sc[5] <= 5
 R256: 6 z[2,1] - sc[1] + sc[2] <= 5
 R257: 6 z[2,3] + sc[2] - sc[3] <= 5
 R258: 6 z[2,4] + sc[2] - sc[4] <= 5
 R259: 6 z[2,5] + sc[2] - sc[5] <= 5
 R260: 6 z[3,1] - sc[1] + sc[3] <= 5
 R261: 6 z[3,2] - sc[2] + sc[3] <= 5
 R262: 6 z[3,4] + sc[3] - sc[4] <= 5
 R263: 6 z[3,5] + sc[3] - sc[5] <= 5
 R264: 6 z[4,1] - sc[1] + sc[4] <= 5
 R265: 6 z[4,2] - sc[2] + sc[4] <= 5
 R266: 6 z[4,3] - sc[3] + sc[4] <= 5
 R267: 6 z[4,5] + sc[4] - sc[5] <= 5
 R268: 6 z[5,1] - sc[1] + sc[5] <= 5
 R269: 6 z[5,2] - sc[2] + sc[5] <= 5
 R270: 6 z[5,3] - sc[3] + sc[5] <= 5
 R271: 6 z[5,4] - sc[4] + sc[5] <= 5
 rest10: sc[0] = 0
 rest11: sc[1] >= 1
 rest11: sc[2] >= 1
 rest11: sc[3] >= 1
 rest11: sc[4] >= 1
 rest11: sc[5] >= 1
 R278: dc[0] <= 13.35657013244232
 R279: - x[0,0,0] + x[0,1,0] + difc[0,0] >= 0
 R280: x[0,0,0] - x[0,1,0] + difc[0,0] >= 0
 R281: - x[0,0,1] + x[0,1,1] + difc[0,1] >= 0
 R282: x[0,0,1] - x[0,1,1] + difc[0,1] >= 0
 R283: dc[1] <= 13.39727047772201
 envConv: mu[1,0] + mu[1,1] + mu[1,2] + mu[1,3] = 1
 inP1: x[1,0,0] - 8.879260907272283 mu[1,0] - 14.45093487391038 mu[1,1]
   - 22.21651860521768 mu[1,2] - 8.879260907272252 mu[1,3] = 0
 inP1: x[1,1,0] - 8.879260907272283 mu[1,0] - 14.45093487391038 mu[1,1]
   - 22.21651860521768 mu[1,2] - 8.879260907272252 mu[1,3] = 0
 inP1: x[1,0,1] - 48.30600260285888 mu[1,0] - 36.12227142301381 mu[1,1]
   - 47.03934820964923 mu[1,2] - 48.30600260285884 mu[1,3] = 0
 inP1: x[1,1,1] - 48.30600260285888 mu[1,0] - 36.12227142301381 mu[1,1]
   - 47.03934820964923 mu[1,2] - 48.30600260285884 mu[1,3] = 0
 R289: - x[1,0,0] + x[1,1,0] + difc[1,0] >= 0
 R290: x[1,0,0] - x[1,1,0] + difc[1,0] >= 0
 R291: - x[1,0,1] + x[1,1,1] + difc[1,1] >= 0
 R292: x[1,0,1] - x[1,1,1] + difc[1,1] >= 0
 u0: landa[2,0] - landa[2,1] + min[2] - max[2] = 0
 u1: min[2] + max[2] = 2
 u2: 2 u[2] + max[2] <= 2
 u3: - 2 u[2] + min[2] <= 0
 R297: dc[2] = 17.54634890148684
 R298: landa[2,0] - sublanda[2,0,1] - 3 s[2,0,0] >= -2
 R299: landa[2,0] - sublanda[2,0,1] + 3 s[2,0,0] <= 4
 R300: landa[2,0] - sublanda[2,0,2] - 3 s[2,0,1] >= -1
 R301: landa[2,0] - sublanda[2,0,2] + 3 s[2,0,1] <= 5
 R302: sublanda[2,0,0] - s[2,0,0] <= 0
 R303: sublanda[2,0,2] - s[2,0,1] <= 0
 R304: sublanda[2,0,1] - s[2,0,0] - s[2,0,1] <= 0
 R305: s[2,0,0] + s[2,0,1] = 1
 R306: sublanda[2,0,0] + sublanda[2,0,1] + sublanda[2,0,2] = 1
 seg1: x[2,0,0] - 48.26343996668715 sublanda[2,0,0]
   - 56.06950510734018 sublanda[2,0,1] - 61.22991759849324 sublanda[2,0,2]
   = 0
 seg1: x[2,0,1] - 59.17477421865747 sublanda[2,0,0]
   - 63.17901409197408 sublanda[2,0,1] - 56.08403467943675 sublanda[2,0,2]
   = 0
 R309: landa[2,1] - sublanda[2,1,1] - 3 s[2,1,0] >= -2
 R310: landa[2,1] - sublanda[2,1,1] + 3 s[2,1,0] <= 4
 R311: landa[2,1] - sublanda[2,1,2] - 3 s[2,1,1] >= -1
 R312: landa[2,1] - sublanda[2,1,2] + 3 s[2,1,1] <= 5
 R313: sublanda[2,1,0] - s[2,1,0] <= 0
 R314: sublanda[2,1,2] - s[2,1,1] <= 0
 R315: sublanda[2,1,1] - s[2,1,0] - s[2,1,1] <= 0
 R316: s[2,1,0] + s[2,1,1] = 1
 R317: sublanda[2,1,0] + sublanda[2,1,1] + sublanda[2,1,2] = 1
 seg1: x[2,1,0] - 48.26343996668715 sublanda[2,1,0]
   - 56.06950510734018 sublanda[2,1,1] - 61.22991759849324 sublanda[2,1,2]
   = 0
 seg1: x[2,1,1] - 59.17477421865747 sublanda[2,1,0]
   - 63.17901409197408 sublanda[2,1,1] - 56.08403467943675 sublanda[2,1,2]
   = 0
 R320: dc[3] <= 11.14041862031372
 envConv: mu[3,0] + mu[3,1] + mu[3,2] + mu[3,3] + mu[3,4] + mu[3,5]
   + mu[3,6] + mu[3,7] = 1
 inP1: x[3,0,0] - 23.68595763233474 mu[3,0] - 23.85236880449965 mu[3,1]
   - 20.08202503214945 mu[3,2] - 15.21407207686066 mu[3,3]
   - 12.91417780210958 mu[3,4] - 14.91420950607719 mu[3,5]
   - 19.70810252246418 mu[3,6] - 23.68595763233474 mu[3,7] = 0
 inP1: x[3,1,0] - 23.68595763233474 mu[3,0] - 23.85236880449965 mu[3,1]
   - 20.08202503214945 mu[3,2] - 15.21407207686066 mu[3,3]
   - 12.91417780210958 mu[3,4] - 14.91420950607719 mu[3,5]
   - 19.70810252246418 mu[3,6] - 23.68595763233474 mu[3,7] = 0
 inP1: x[3,0,1] - 78.88832980205089 mu[3,0] - 83.84348897379581 mu[3,1]
   - 87.06308567739848 mu[3,2] - 86.12269792724206 mu[3,3]
   - 81.7304568796086 mu[3,4] - 77.19380962875545 mu[3,5]
   - 75.9289440853141 mu[3,6] - 78.88832980205089 mu[3,7] = 0
 inP1: x[3,1,1] - 78.88832980205089 mu[3,0] - 83.84348897379581 mu[3,1]
   - 87.06308567739848 mu[3,2] - 86.12269792724206 mu[3,3]
   - 81.7304568796086 mu[3,4] - 77.19380962875545 mu[3,5]
   - 75.9289440853141 mu[3,6] - 78.88832980205089 mu[3,7] = 0
 R326: - x[3,0,0] + x[3,1,0] + difc[3,0] >= 0
 R327: x[3,0,0] - x[3,1,0] + difc[3,0] >= 0
 R328: - x[3,0,1] + x[3,1,1] + difc[3,1] >= 0
 R329: x[3,0,1] - x[3,1,1] + difc[3,1] >= 0
 R330: dc[4] <= 12.1165888670087
 envConv: mu[4,0] + mu[4,1] + mu[4,2] + mu[4,3] + mu[4,4] + mu[4,5]
   + mu[4,6] + mu[4,7] + mu[4,8] = 1
 inP1: x[4,0,0] - 84.74806142873345 mu[4,0] - 88.41790862968037 mu[4,1]
   - 89.00884891600811 mu[4,2] - 86.17471748253855 mu[4,3]
   - 81.57571008545055 mu[4,4] - 77.90586288450359 mu[4,5]
   - 77.31492259817581 mu[4,6] - 80.14905403164532 mu[4,7]
   - 84.74806142873332 mu[4,8] = 0
 inP1: x[4,1,0] - 84.74806142873345 mu[4,0] - 88.41790862968037 mu[4,1]
   - 89.00884891600811 mu[4,2] - 86.17471748253855 mu[4,3]
   - 81.57571008545055 mu[4,4] - 77.90586288450359 mu[4,5]
   - 77.31492259817581 mu[4,6] - 80.14905403164532 mu[4,7]
   - 84.74806142873332 mu[4,8] = 0
 inP1: x[4,0,1] - 40.48534306513642 mu[4,0] - 43.31947449860598 mu[4,1]
   - 47.91848189569399 mu[4,2] - 51.58832909664093 mu[4,3]
   - 52.17926938296869 mu[4,4] - 49.34513794949916 mu[4,5]
   - 44.74613055241116 mu[4,6] - 41.07628335146418 mu[4,7]
   - 40.48534306513638 mu[4,8] = 0
 inP1: x[4,1,1] - 40.48534306513642 mu[4,0] - 43.31947449860598 mu[4,1]
   - 47.91848189569399 mu[4,2] - 51.58832909664093 mu[4,3]
   - 52.17926938296869 mu[4,4] - 49.34513794949916 mu[4,5]
   - 44.74613055241116 mu[4,6] - 41.07628335146418 mu[4,7]
   - 40.48534306513638 mu[4,8] = 0
 R336: - x[4,0,0] + x[4,1,0] + difc[4,0] >= 0
 R337: x[4,0,0] - x[4,1,0] + difc[4,0] >= 0
 R338: - x[4,0,1] + x[4,1,1] + difc[4,1] >= 0
 R339: x[4,0,1] - x[4,1,1] + difc[4,1] >= 0
 R340: dc[5] <= 11.51221466414435
 R341: - x[5,0,0] + x[5,1,0] + difc[5,0] >= 0
 R342: x[5,0,0] - x[5,1,0] + difc[5,0] >= 0
 R343: - x[5,0,1] + x[5,1,1] + difc[5,1] >= 0
 R344: x[5,0,1] - x[5,1,1] + difc[5,1] >= 0
 qc0: [ - dcc[0,1] ^2 + dif[0,1,0] ^2 + dif[0,1,1] ^2 ] <= 0
 qc1: [ - dcc[0,2] ^2 + dif[0,2,0] ^2 + dif[0,2,1] ^2 ] <= 0
 qc2: [ - dcc[0,3] ^2 + dif[0,3,0] ^2 + dif[0,3,1] ^2 ] <= 0
 qc3: [ - dcc[0,4] ^2 + dif[0,4,0] ^2 + dif[0,4,1] ^2 ] <= 0
 qc4: [ - dcc[0,5] ^2 + dif[0,5,0] ^2 + dif[0,5,1] ^2 ] <= 0
 qc5: [ - dcc[1,0] ^2 + dif[1,0,0] ^2 + dif[1,0,1] ^2 ] <= 0
 qc6: [ - dcc[1,2] ^2 + dif[1,2,0] ^2 + dif[1,2,1] ^2 ] <= 0
 qc7: [ - dcc[1,3] ^2 + dif[1,3,0] ^2 + dif[1,3,1] ^2 ] <= 0
 qc8: [ - dcc[1,4] ^2 + dif[1,4,0] ^2 + dif[1,4,1] ^2 ] <= 0
 qc9: [ - dcc[1,5] ^2 + dif[1,5,0] ^2 + dif[1,5,1] ^2 ] <= 0
 qc10: [ - dcc[2,0] ^2 + dif[2,0,0] ^2 + dif[2,0,1] ^2 ] <= 0
 qc11: [ - dcc[2,1] ^2 + dif[2,1,0] ^2 + dif[2,1,1] ^2 ] <= 0
 qc12: [ - dcc[2,3] ^2 + dif[2,3,0] ^2 + dif[2,3,1] ^2 ] <= 0
 qc13: [ - dcc[2,4] ^2 + dif[2,4,0] ^2 + dif[2,4,1] ^2 ] <= 0
 qc14: [ - dcc[2,5] ^2 + dif[2,5,0] ^2 + dif[2,5,1] ^2 ] <= 0
 qc15: [ - dcc[3,0] ^2 + dif[3,0,0] ^2 + dif[3,0,1] ^2 ] <= 0
 qc16: [ - dcc[3,1] ^2 + dif[3,1,0] ^2 + dif[3,1,1] ^2 ] <= 0
 qc17: [ - dcc[3,2] ^2 + dif[3,2,0] ^2 + dif[3,2,1] ^2 ] <= 0
 qc18: [ - dcc[3,4] ^2 + dif[3,4,0] ^2 + dif[3,4,1] ^2 ] <= 0
 qc19: [ - dcc[3,5] ^2 + dif[3,5,0] ^2 + dif[3,5,1] ^2 ] <= 0
 qc20: [ - dcc[4,0] ^2 + dif[4,0,0] ^2 + dif[4,0,1] ^2 ] <= 0
 qc21: [ - dcc[4,1] ^2 + dif[4,1,0] ^2 + dif[4,1,1] ^2 ] <= 0
 qc22: [ - dcc[4,2] ^2 + dif[4,2,0] ^2 + dif[4,2,1] ^2 ] <= 0
 qc23: [ - dcc[4,3] ^2 + dif[4,3,0] ^2 + dif[4,3,1] ^2 ] <= 0
 qc24: [ - dcc[4,5] ^2 + dif[4,5,0] ^2 + dif[4,5,1] ^2 ] <= 0
 qc25: [ - dcc[5,0] ^2 + dif[5,0,0] ^2 + dif[5,0,1] ^2 ] <= 0
 qc26: [ - dcc[5,1] ^2 + dif[5,1,0] ^2 + dif[5,1,1] ^2 ] <= 0
 qc27: [ - dcc[5,2] ^2 + dif[5,2,0] ^2 + dif[5,2,1] ^2 ] <= 0
 qc28: [ - dcc[5,3] ^2 + dif[5,3,0] ^2 + dif[5,3,1] ^2 ] <= 0
 qc29: [ - dcc[5,4] ^2 + dif[5,4,0] ^2 + dif[5,4,1] ^2 ] <= 0
 inC1: - 42.9815996791441 x[0,0,0] - 89.04362742179096 x[0,0,1] + [
   x[0,0,0] ^2 + x[0,0,1] ^2 ] <= -2399.446882426518
 inC1: - 42.9815996791441 x[0,1,0] - 89.04362742179096 x[0,1,1] + [
   x[0,1,0] ^2 + x[0,1,1] ^2 ] <= -2399.446882426518
 qc32: [ - dc[0] ^2 + difc[0,0] ^2 + difc[0,1] ^2 ] <= 0
 qc33: [ - dc[1] ^2 + difc[1,0] ^2 + difc[1,1] ^2 ] <= 0
 qc34: [ - dc[3] ^2 + difc[3,0] ^2 + difc[3,1] ^2 ] <= 0
 qc35: [ - dc[4] ^2 + difc[4,0] ^2 + difc[4,1] ^2 ] <= 0
 inC1: - 127.8483277992138 x[5,0,0] - 21.67465587920731 x[5,0,1] + [
   x[5,0,0] ^2 + x[5,0,1] ^2 ] <= -4170.613635515983
 inC1: - 127.8483277992138 x[5,1,0] - 21.67465587920731 x[5,1,1] + [
   x[5,1,0] ^2 + x[5,1,1] ^2 ] <= -4170.613635515983
 qc38: [ - dc[5] ^2 + difc[5,0] ^2 + difc[5,1] ^2 ] <= 0
Bounds
 mu[1,0] <= 1
 mu[1,1] <= 1
 mu[1,2] <= 1
 mu[1,3] <= 1
 mu[3,0] <= 1
 mu[3,1] <= 1
 mu[3,2] <= 1
 mu[3,3] <= 1
 mu[3,4] <= 1
 mu[3,5] <= 1
 mu[3,6] <= 1
 mu[3,7] <= 1
 mu[4,0] <= 1
 mu[4,1] <= 1
 mu[4,2] <= 1
 mu[4,3] <= 1
 mu[4,4] <= 1
 mu[4,5] <= 1
 mu[4,6] <= 1
 mu[4,7] <= 1
 mu[4,8] <= 1
 sublanda[2,0,0] <= 1
 sublanda[2,1,0] <= 1
 sublanda[2,0,1] <= 1
 sublanda[2,1,1] <= 1
 sublanda[2,0,2] <= 1
 sublanda[2,1,2] <= 1
 sc[0] <= 5
 sc[1] <= 5
 sc[2] <= 5
 sc[3] <= 5
 sc[4] <= 5
 sc[5] <= 5
Binaries
 z[0,1] z[0,2] z[0,3] z[0,4] z[0,5] z[1,0] z[1,2] z[1,3] z[1,4] z[1,5]
 z[2,0] z[2,1] z[2,3] z[2,4] z[2,5] z[3,0] z[3,1] z[3,2] z[3,4] z[3,5]
 z[4,0] z[4,1] z[4,2] z[4,3] z[4,5] z[5,0] z[5,1] z[5,2] z[5,3] z[5,4]
 s[2,0,0] s[2,1,0] s[2,0,1] s[2,1,1] u[2]
End
